p edge 20 43
e 1 12
e 1 16
e 1 18
e 2 8
e 2 10
e 2 16
e 3 4
e 3 6
e 3 12
e 3 14
e 3 15
e 4 7
e 4 16
e 5 6
e 5 8
e 5 15
e 6 8
e 6 12
e 7 8
e 7 12
e 7 19
e 7 20
e 8 9
e 8 12
e 8 17
e 9 12
e 9 13
e 10 11
e 10 16
e 10 17
e 11 12
e 11 13
e 11 14
e 11 17
e 12 17
e 13 15
e 14 17
e 14 18
e 14 19
e 14 20
e 16 18
e 18 20
e 19 20
